(set-info :smt-lib-version 2.6)
(set-logic QF_NRA)
(set-info :source |
These benchmarks used in the paper:

  Dejan Jovanovic and Leonardo de Moura.  Solving Non-Linear Arithmetic.
  In IJCAR 2012, published as LNCS volume 7364, pp. 339--354.

The meti-tarski benchmarks are proof obligations extracted from the
Meti-Tarski project, see:

  B. Akbarpour and L. C. Paulson. MetiTarski: An automatic theorem prover
  for real-valued special functions. Journal of Automated Reasoning,
  44(3):175-205, 2010.

Submitted by Dejan Jovanovic for SMT-LIB.


|)
(set-info :category "industrial")
(set-info :status sat)
(declare-fun skoX () Real)
(declare-fun skoY () Real)
(declare-fun pi () Real)
(assert (and (not (= (* skoY skoY) (+ 277555600 (* skoX (* skoX (+ 15328072984 (* skoX (* skoX (+ 129098541721 (* skoX (* skoX (+ 21404723599 (* skoX (* skoX (+ 1024027285 (* skoX (* skoX 15132100))))))))))))))))) (and (not (<= pi (/ 15707963 5000000))) (not (<= (/ 31415927 10000000) pi)))))
(check-sat)
(exit)
